20	5	2	0
0	1	13	11	1	5	9	2	12	17	16	6	4	3	7	19	[0 0 0]	[0 0 0]	[0 0 0]	[0 0 0]	[0 0 0]	[0 0 0]	[0 0 0]	[0 0 0]	[0 0 0]	[0 0 0]	[0 0 0]	[0 0 0]	[0 0 0]
1	3	4	15	13	17	21	[0 17 13 5 21 13 2 0 6]	[5 -3 3 12 3 23 4 -1 5]	[10 17 18 15 5 -7 4 1 3]	[6 9 2]
2	3	5	19	21	9	20	14	[5 -3 0 4 15 13 2 2 0]	[6 5 1]	[-5 7 17 11 -3 3 1 0 0]	[15 14 9 15 8 7 2 1 2]	[-1 -4 17 14 -1 13 0 1 3]
3	3	3	21	16	17	[1 3 10]	[2 2 1 9 -1 -2 0 -9 -2]	[0 0 1 -2 4 -1 9 -2 23]
4	3	3	15	21	11	[7 11 0 11 3 -5 2 2 2]	[4 9 1]	[8 6 -1 9 12 -3 1 0 3]
5	3	4	13	19	20	8	[3 2 0 1 0 0 5 0 3]	[2 0 3 0 5 -1 0 -1 0]	[1 3 3 8 -2 9 0 4 2]	[3 1 3 0 0 3 0 0 0]
6	3	3	16	21	15	[11 9 -3 9 9 0 4 0 -1]	[4 4 2]	[3 5 3 12 6 10 4 2 0]
7	3	3	8	21	11	[0 1 9 6 -2 4 12 15 -3]	[4 3 10]	[-2 0 3 4 1 7 20 18 0]
8	3	6	17	15	7	21	10	16	[5 17 4 5 -2 -1 8 4 -5]	[-1 14 17 7 1 8 -2 -2 -1]	[-62 -43 -34 -89 -45 -48 -91 -59 -73]	[8 3 6]	[12 24 18 8 7 9 5 5 18]	[-4 -4 -4 0 2 3 11 10 11]
9	3	3	17	11	12	[0 0 0 0 6 3 3 9 0]	[3 0 2 5 0 2 0 7 4]	[0 2 2 -1 -1 8 7 4 0]
10	3	4	12	21	18	14	[-6 0 21 14 12 9 7 9 10]	[7 5 8]	[21 14 3 2 15 2 -5 -4 -3]	[2 8 13 -1 3 -3 15 7 11]
11	3	2	21	4	[3 4 4]	[-23 -30 -17 -23 -24 -9 -23 -6 -14]
12	3	2	21	9	[1 2 10]	[-45 -85 -46 -96 -81 -110 -36 -90 -103]
13	3	1	21	[6 1 3]
14	3	1	21	[1 5 10]
15	3	3	4	6	21	[-16 -24 -7 -21 -4 -3 -11 -3 -18]	[-25 -7 -21 -15 -17 -21 -18 -10 -24]	[3 4 9]
16	3	1	21	[3 8 4]
17	3	4	21	1	3	8	[8 4 4]	[-92 -51 -36 -70 -38 -47 -47 -69 -98]	[-106 -105 -57 -32 -77 -62 -69 -35 -50]	[-96 -87 -56 -85 -28 -50 -72 -98 -83]
18	3	1	21	[6 1 3]
19	3	3	21	2	5	[1 10 10]	[-4 -16 -17 -10 -9 -11 -5 -16 -18]	[-5 -15 -9 -5 -18 -13 -10 -18 -14]
20	3	1	21	[9 10 1]
21	1	0
0	1	0	0	0	0	0	0	0	0
1	1	6	1	2	3	1	4	5	5
	2	9	1	2	3	1	4	5	5
	3	2	1	2	3	1	4	5	5
2	1	6	5	2	4	1	5	5	2
	2	5	5	2	4	1	5	5	2
	3	1	5	2	4	1	5	5	2
3	1	1	1	1	2	5	2	1	1
	2	3	1	1	2	5	2	1	1
	3	10	1	1	2	5	2	1	1
4	1	4	2	2	5	4	1	4	2
	2	9	2	2	5	4	1	4	2
	3	1	2	2	5	4	1	4	2
5	1	1	1	2	3	3	4	4	3
	2	3	1	2	3	3	4	4	3
	3	2	1	2	3	3	4	4	3
6	1	4	5	3	5	5	3	5	1
	2	4	5	3	5	5	3	5	1
	3	2	5	3	5	5	3	5	1
7	1	4	2	3	3	1	5	2	3
	2	3	2	3	3	1	5	2	3
	3	10	2	3	3	1	5	2	3
8	1	8	5	2	1	3	4	3	5
	2	3	5	2	1	3	4	3	5
	3	6	5	2	1	3	4	3	5
9	1	1	4	5	3	2	5	5	5
	2	3	4	5	3	2	5	5	5
	3	3	4	5	3	2	5	5	5
10	1	7	2	2	2	1	2	4	4
	2	5	2	2	2	1	2	4	4
	3	8	2	2	2	1	2	4	4
11	1	3	2	3	2	5	3	3	5
	2	4	2	3	2	5	3	3	5
	3	4	2	3	2	5	3	3	5
12	1	1	3	1	2	2	4	4	5
	2	2	3	1	2	2	4	4	5
	3	10	3	1	2	2	4	4	5
13	1	6	5	2	4	5	5	5	5
	2	1	5	2	4	5	5	5	5
	3	3	5	2	4	5	5	5	5
14	1	1	4	3	3	5	3	4	1
	2	5	4	3	3	5	3	4	1
	3	10	4	3	3	5	3	4	1
15	1	3	4	1	3	3	4	4	2
	2	4	4	1	3	3	4	4	2
	3	9	4	1	3	3	4	4	2
16	1	3	3	4	5	4	4	1	4
	2	8	3	4	5	4	4	1	4
	3	4	3	4	5	4	4	1	4
17	1	8	3	1	2	5	2	1	5
	2	4	3	1	2	5	2	1	5
	3	4	3	1	2	5	2	1	5
18	1	6	3	4	4	5	2	4	2
	2	1	3	4	4	5	2	4	2
	3	3	3	4	4	5	2	4	2
19	1	1	3	1	1	2	1	2	5
	2	10	3	1	1	2	1	2	5
	3	10	3	1	1	2	1	2	5
20	1	9	3	5	2	1	3	2	4
	2	10	3	5	2	1	3	2	4
	3	1	3	5	2	1	3	2	4
21	1	0	0	0	0	0	0	0	0
29	22	29	31	32	68	137
